Version identifier: 22.1.1.0 | 2022-11-28 | 9160aff4d
CPXPARAM_ClockType                               1
CPXPARAM_Read_DataCheck                          1
CPXPARAM_Threads                                 1
CPXPARAM_TimeLimit                               7200
CPXPARAM_MIP_Tolerances_AbsMIPGap                0
CPXPARAM_MIP_Tolerances_MIPGap                   0
CPXPARAM_MIP_Tolerances_Integrality              0
Tried aggregator 2 times.
MIP Presolve eliminated 12 rows and 4 columns.
MIP Presolve modified 8 coefficients.
Aggregator did 759 substitutions.
Reduced MIP has 116438 rows, 9863 columns, and 624545 nonzeros.
Reduced MIP has 9863 binaries, 0 generals, 0 SOSs, and 0 indicators.
Presolve time = 1.98 sec. (1120.18 ticks)
Probing time = 0.02 sec. (11.35 ticks)
Tried aggregator 1 time.
Detecting symmetries...
Reduced MIP has 116438 rows, 9863 columns, and 624545 nonzeros.
Reduced MIP has 9863 binaries, 0 generals, 0 SOSs, and 0 indicators.
Presolve time = 1.73 sec. (960.16 ticks)
Probing time = 0.02 sec. (11.35 ticks)
Clique table members: 92722.
MIP emphasis: balance optimality and feasibility.
MIP search method: dynamic search.
Parallel mode: none, using 1 thread.
Root relaxation solution time = 20.55 sec. (7233.37 ticks)

        Nodes                                         Cuts/
   Node  Left     Objective  IInf  Best Integer    Best Bound    ItCnt     Gap

      0     0     4554.0000  3568                   4554.0000    20290         
      0     0     4553.8000  3853                   Cuts: 607    34975         
      0     0     4552.0000  4321                  Cuts: 1639   133687         
      0     0     4552.0000  4302               ZeroHalf: 2218   148984         
      0     0     4552.0000  4286                  Cuts: 1319   163306         
      0     0     4552.0000  3929               ZeroHalf: 437   184338         
Detecting symmetries...
      0     0     4552.0000  4031               ZeroHalf: 1979   205794         
Heuristic still looking.
Heuristic still looking.
Detecting symmetries...
      0     2     4552.0000  3529                   4552.0000   205794         
Elapsed time = 4620.62 sec. (1038304.26 ticks, tree = 0.01 MB, solutions = 0)
      1     3     4255.0000  3293                   4552.0000   354471         

Mixed integer rounding cuts applied:  1
Zero-half cuts applied:  401
Gomory fractional cuts applied:  2

Root node processing (before b&c):
  Real time             = 4620.29 sec. (1038043.47 ticks)
Sequential b&c:
  Real time             = 2579.73 sec. (478901.21 ticks)
                          ------------
Total (root+branch&cut) = 7200.02 sec. (1516944.68 ticks)
Solution is infeasible.

---------------------
@@@ MIP_time_limit_infeasible
Traceback (most recent call last):
  File "/scratch/scherif/DiverseSAT-journal_sup/DiverseSAT_Supplementary_Experiments/experiment-1/cplex/jobs/../solvers/CPLEX-IW-SE.py", line 105, in <module>
    print(f">>> Benchmark {os.path.basename(cnf_file)} k {k} OPT {int(prob.solution.get_objective_value())}"
  File "/users/scherif/.local/lib/python3.9/site-packages/cplex/_internal/_subinterfaces.py", line 7211, in get_objective_value
    return CPX_PROC.getobjval(self._env._e, self._cplex._lp)
  File "/users/scherif/.local/lib/python3.9/site-packages/cplex/_internal/_procedural.py", line 2055, in getobjval
    check_status(env, status)
  File "/users/scherif/.local/lib/python3.9/site-packages/cplex/_internal/_procedural.py", line 249, in __call__
    raise CplexSolverError(error_string, env, status)
cplex.exceptions.errors.CplexSolverError: CPLEX Error  1217: No solution exists.
